100 2413
1 2 1
1 6 -1
1 7 1
1 9 1
1 11 1
1 15 -1
1 16 1
1 18 1
1 20 1
1 22 1
1 23 1
1 24 -1
1 25 -1
1 26 -1
1 27 -1
1 29 -1
1 30 -1
1 32 -1
1 33 1
1 34 -1
1 39 1
1 40 1
1 42 1
1 46 1
1 47 1
1 49 -1
1 50 -1
1 52 -1
1 55 1
1 58 -1
1 60 1
1 62 -1
1 64 1
1 65 1
1 68 -1
1 69 -1
1 70 1
1 72 1
1 75 1
1 76 1
1 77 1
1 81 1
1 82 -1
1 83 1
1 84 1
1 86 -1
1 88 1
1 89 -1
1 92 -1
1 93 -1
1 97 1
2 5 1
2 6 -1
2 8 -1
2 10 -1
2 11 -1
2 13 1
2 14 -1
2 15 -1
2 17 1
2 18 -1
2 19 1
2 20 1
2 21 1
2 24 -1
2 26 1
2 29 -1
2 30 -1
2 31 -1
2 34 1
2 35 -1
2 36 1
2 39 -1
2 54 1
2 55 -1
2 56 -1
2 57 1
2 59 -1
2 64 -1
2 65 -1
2 66 -1
2 67 1
2 69 1
2 70 -1
2 71 -1
2 73 -1
2 74 1
2 80 -1
2 83 1
2 85 -1
2 87 -1
2 88 1
2 90 1
2 94 1
2 95 -1
2 96 1
2 99 1
3 4 -1
3 5 1
3 6 1
3 10 -1
3 12 1
3 13 -1
3 14 -1
3 15 -1
3 22 -1
3 23 -1
3 24 -1
3 25 1
3 26 -1
3 27 -1
3 28 1
3 29 -1
3 37 -1
3 38 -1
3 39 1
3 43 1
3 45 1
3 47 1
3 49 1
3 51 -1
3 53 1
3 54 -1
3 57 -1
3 61 1
3 63 -1
3 66 -1
3 67 -1
3 70 1
3 72 -1
3 73 -1
3 74 1
3 81 1
3 84 1
3 88 1
3 92 -1
3 93 -1
3 94 -1
3 95 1
3 96 -1
3 97 -1
3 99 1
4 5 1
4 8 -1
4 11 -1
4 12 1
4 13 1
4 15 1
4 17 -1
4 18 1
4 26 -1
4 29 -1
4 31 1
4 32 1
4 38 -1
4 40 -1
4 42 -1
4 44 1
4 47 1
4 49 -1
4 51 1
4 52 1
4 54 -1
4 55 -1
4 57 1
4 59 -1
4 62 1
4 64 -1
4 67 -1
4 68 1
4 71 -1
4 72 -1
4 73 1
4 74 1
4 78 1
4 82 -1
4 83 1
4 87 1
4 89 1
4 91 -1
4 94 1
4 97 1
4 98 1
4 100 -1
5 6 -1
5 8 1
5 10 1
5 11 -1
5 12 -1
5 13 -1
5 16 -1
5 17 1
5 21 1
5 22 1
5 25 1
5 26 -1
5 30 -1
5 32 -1
5 33 1
5 34 -1
5 35 -1
5 36 -1
5 39 1
5 42 -1
5 43 1
5 45 -1
5 48 1
5 51 1
5 52 1
5 53 -1
5 57 1
5 58 1
5 64 -1
5 66 -1
5 67 -1
5 70 1
5 73 -1
5 74 -1
5 76 1
5 78 1
5 81 -1
5 82 -1
5 83 1
5 84 1
5 85 -1
5 86 -1
5 89 1
5 94 -1
5 99 -1
6 9 1
6 10 1
6 11 -1
6 14 -1
6 18 -1
6 19 -1
6 22 -1
6 24 1
6 25 1
6 26 1
6 27 1
6 30 1
6 33 1
6 34 1
6 35 -1
6 37 1
6 38 -1
6 39 -1
6 40 1
6 41 1
6 42 1
6 45 -1
6 46 -1
6 47 -1
6 48 -1
6 51 -1
6 57 -1
6 62 -1
6 63 -1
6 65 1
6 67 1
6 69 -1
6 73 1
6 75 -1
6 77 -1
6 80 -1
6 81 1
6 83 1
6 84 1
6 86 1
6 87 -1
6 88 -1
6 90 -1
6 91 -1
6 94 1
6 95 1
6 97 -1
6 98 1
7 8 1
7 10 1
7 11 -1
7 14 -1
7 15 1
7 18 -1
7 19 -1
7 24 1
7 25 -1
7 32 -1
7 34 -1
7 35 -1
7 37 1
7 38 -1
7 40 1
7 42 -1
7 43 1
7 45 -1
7 48 -1
7 49 -1
7 50 -1
7 51 1
7 54 1
7 56 -1
7 58 -1
7 60 1
7 62 1
7 69 1
7 72 -1
7 74 1
7 78 -1
7 80 -1
7 82 -1
7 83 1
7 88 -1
7 92 1
7 93 1
7 95 1
7 97 -1
8 13 1
8 14 -1
8 16 1
8 18 -1
8 21 1
8 26 1
8 28 -1
8 29 1
8 30 -1
8 31 1
8 33 -1
8 34 1
8 35 -1
8 36 1
8 37 -1
8 38 1
8 39 1
8 40 1
8 42 1
8 48 -1
8 54 1
8 55 -1
8 57 1
8 59 -1
8 61 1
8 63 1
8 65 1
8 68 -1
8 69 1
8 70 -1
8 71 1
8 72 1
8 73 1
8 77 -1
8 79 -1
8 80 1
8 81 -1
8 82 -1
8 86 -1
8 87 1
8 88 1
8 91 1
8 93 -1
8 94 1
8 95 -1
8 98 -1
9 10 1
9 11 1
9 12 1
9 14 -1
9 15 1
9 16 1
9 17 -1
9 18 -1
9 19 1
9 20 1
9 21 1
9 25 1
9 26 -1
9 28 1
9 32 1
9 35 -1
9 36 -1
9 40 -1
9 41 -1
9 45 1
9 46 -1
9 48 1
9 49 1
9 51 1
9 52 -1
9 53 1
9 54 -1
9 59 -1
9 61 -1
9 62 -1
9 63 -1
9 65 -1
9 67 -1
9 68 -1
9 69 1
9 70 -1
9 71 1
9 72 1
9 74 1
9 78 1
9 80 1
9 81 -1
9 84 -1
9 85 -1
9 88 -1
9 91 1
9 94 1
9 96 -1
9 97 1
9 100 -1
10 12 -1
10 13 1
10 14 -1
10 16 1
10 18 -1
10 20 -1
10 21 1
10 23 -1
10 25 -1
10 26 1
10 27 1
10 30 -1
10 32 -1
10 33 1
10 36 1
10 39 -1
10 42 1
10 43 -1
10 44 -1
10 45 -1
10 49 -1
10 51 -1
10 54 -1
10 58 -1
10 59 -1
10 61 -1
10 62 -1
10 68 1
10 69 -1
10 72 -1
10 73 -1
10 74 1
10 77 1
10 81 1
10 83 -1
10 85 1
10 89 1
10 92 -1
10 94 1
10 98 1
10 99 1
10 100 1
11 12 1
11 13 1
11 14 1
11 18 1
11 19 1
11 20 -1
11 22 1
11 23 -1
11 24 -1
11 25 -1
11 26 1
11 29 1
11 33 1
11 35 -1
11 39 1
11 40 -1
11 42 -1
11 43 1
11 44 -1
11 45 1
11 46 -1
11 47 -1
11 48 -1
11 49 1
11 51 1
11 52 1
11 54 -1
11 55 1
11 56 -1
11 57 -1
11 59 -1
11 63 -1
11 64 1
11 66 -1
11 75 1
11 84 1
11 88 -1
11 90 1
11 91 -1
11 95 1
11 97 1
12 14 -1
12 17 1
12 19 1
12 20 -1
12 25 1
12 29 1
12 31 1
12 32 1
12 34 1
12 39 -1
12 41 1
12 42 1
12 45 -1
12 49 1
12 50 1
12 53 1
12 54 -1
12 56 1
12 57 -1
12 58 1
12 59 -1
12 60 1
12 61 -1
12 63 -1
12 65 1
12 66 1
12 67 1
12 68 1
12 69 -1
12 70 -1
12 72 1
12 78 1
12 79 1
12 80 1
12 83 1
12 86 1
12 87 -1
12 89 -1
12 91 1
12 92 1
12 93 -1
12 98 -1
13 14 1
13 15 -1
13 20 -1
13 30 -1
13 31 -1
13 34 -1
13 35 1
13 37 -1
13 40 1
13 41 -1
13 43 -1
13 44 1
13 52 -1
13 56 -1
13 57 1
13 58 1
13 61 -1
13 63 1
13 66 1
13 67 1
13 69 1
13 70 -1
13 72 -1
13 73 -1
13 75 -1
13 84 -1
13 85 -1
13 88 -1
13 89 1
13 90 1
13 92 -1
13 94 1
13 96 -1
13 98 1
13 100 1
14 22 1
14 27 -1
14 29 -1
14 31 1
14 34 -1
14 35 1
14 38 1
14 39 1
14 40 1
14 42 -1
14 45 1
14 46 -1
14 48 1
14 52 -1
14 56 -1
14 61 -1
14 63 -1
14 64 1
14 66 1
14 67 1
14 68 -1
14 70 -1
14 71 1
14 75 1
14 77 -1
14 79 1
14 80 1
14 82 -1
14 88 1
14 89 -1
14 92 1
14 93 1
14 94 1
14 96 1
14 99 -1
15 18 -1
15 21 -1
15 22 -1
15 24 1
15 25 1
15 29 -1
15 30 1
15 31 -1
15 32 1
15 36 -1
15 37 -1
15 39 -1
15 41 -1
15 43 1
15 44 1
15 48 -1
15 49 1
15 50 1
15 51 1
15 53 -1
15 57 1
15 58 -1
15 61 -1
15 63 -1
15 64 1
15 65 1
15 66 1
15 68 1
15 69 1
15 70 -1
15 72 1
15 75 1
15 76 1
15 80 -1
15 84 -1
15 85 -1
15 89 1
15 92 -1
15 94 -1
15 98 1
15 99 -1
16 17 -1
16 18 -1
16 19 -1
16 20 -1
16 22 1
16 23 -1
16 24 1
16 26 1
16 28 -1
16 29 -1
16 33 1
16 34 -1
16 35 -1
16 37 1
16 45 1
16 48 -1
16 49 1
16 50 1
16 51 1
16 52 1
16 54 1
16 56 1
16 57 -1
16 58 -1
16 60 -1
16 63 1
16 65 -1
16 66 -1
16 70 1
16 71 1
16 72 -1
16 74 -1
16 76 -1
16 78 -1
16 79 -1
16 81 1
16 83 1
16 86 1
16 87 1
16 88 -1
16 89 -1
16 92 1
16 95 -1
16 96 -1
16 98 1
16 99 1
17 19 1
17 24 1
17 27 1
17 28 1
17 34 1
17 38 -1
17 40 -1
17 41 1
17 43 1
17 44 -1
17 45 -1
17 46 -1
17 47 1
17 48 -1
17 50 1
17 51 1
17 52 1
17 57 -1
17 58 -1
17 59 -1
17 62 1
17 63 1
17 65 1
17 67 -1
17 70 1
17 72 1
17 73 1
17 74 1
17 77 -1
17 81 1
17 83 1
17 85 -1
17 86 -1
17 87 1
17 88 1
17 90 1
17 92 -1
17 94 1
17 95 -1
17 97 1
17 98 -1
17 99 1
17 100 1
18 20 1
18 21 1
18 22 1
18 24 1
18 25 -1
18 27 1
18 28 -1
18 29 -1
18 30 1
18 31 1
18 36 -1
18 38 -1
18 39 1
18 41 -1
18 46 1
18 47 -1
18 52 -1
18 55 1
18 58 1
18 59 1
18 60 1
18 61 1
18 67 -1
18 68 -1
18 69 1
18 71 -1
18 72 -1
18 74 -1
18 78 -1
18 80 1
18 83 -1
18 85 1
18 87 -1
18 88 1
18 89 -1
18 91 1
18 97 -1
18 98 1
18 99 1
19 21 1
19 22 -1
19 24 -1
19 25 -1
19 26 -1
19 27 1
19 28 1
19 29 1
19 30 -1
19 31 1
19 32 -1
19 33 1
19 38 -1
19 39 -1
19 40 -1
19 41 1
19 43 1
19 45 1
19 46 1
19 48 -1
19 49 -1
19 50 -1
19 51 -1
19 55 -1
19 58 -1
19 60 -1
19 61 1
19 62 1
19 64 1
19 65 1
19 67 -1
19 72 1
19 73 -1
19 77 -1
19 79 1
19 82 -1
19 83 -1
19 85 1
19 87 -1
19 91 -1
19 93 -1
19 94 1
19 95 -1
19 97 1
19 99 1
20 24 -1
20 28 1
20 29 -1
20 31 1
20 32 1
20 34 -1
20 36 -1
20 37 -1
20 38 1
20 39 1
20 42 -1
20 47 1
20 48 -1
20 51 1
20 52 -1
20 58 1
20 59 -1
20 61 1
20 62 1
20 63 -1
20 65 1
20 66 1
20 68 -1
20 69 1
20 71 -1
20 77 -1
20 79 -1
20 81 -1
20 82 -1
20 84 1
20 87 -1
20 88 -1
20 89 -1
20 93 1
20 95 -1
20 96 -1
20 98 -1
20 99 1
21 25 -1
21 26 1
21 27 -1
21 32 1
21 35 1
21 36 1
21 37 1
21 39 -1
21 41 -1
21 42 1
21 44 1
21 45 1
21 47 -1
21 48 1
21 50 1
21 52 -1
21 53 1
21 54 -1
21 58 -1
21 65 -1
21 66 -1
21 68 1
21 69 1
21 73 -1
21 76 -1
21 77 1
21 78 1
21 80 -1
21 82 1
21 83 -1
21 84 -1
21 85 -1
21 86 1
21 89 -1
21 90 1
21 93 1
21 95 1
21 96 1
21 97 1
21 100 1
22 23 -1
22 29 1
22 30 -1
22 34 1
22 36 -1
22 38 -1
22 39 -1
22 40 1
22 41 1
22 42 1
22 43 -1
22 44 1
22 46 -1
22 48 -1
22 50 -1
22 55 -1
22 58 1
22 60 -1
22 62 1
22 63 1
22 64 -1
22 65 1
22 67 -1
22 68 -1
22 71 -1
22 72 -1
22 74 1
22 75 -1
22 76 -1
22 77 1
22 78 1
22 79 1
22 82 -1
22 83 -1
22 84 -1
22 85 -1
22 86 1
22 93 1
22 98 1
22 99 -1
23 24 -1
23 28 1
23 30 -1
23 31 -1
23 32 -1
23 33 -1
23 34 -1
23 35 -1
23 39 1
23 40 -1
23 43 -1
23 46 1
23 48 1
23 49 1
23 52 -1
23 54 1
23 60 -1
23 63 1
23 64 -1
23 65 1
23 66 1
23 67 -1
23 68 1
23 69 1
23 70 -1
23 75 -1
23 76 -1
23 79 1
23 84 -1
23 86 -1
23 87 1
23 89 1
23 91 -1
23 95 1
23 96 1
23 97 1
23 99 1
23 100 -1
24 26 1
24 30 -1
24 31 1
24 32 -1
24 36 1
24 37 -1
24 38 -1
24 41 1
24 44 1
24 49 1
24 51 -1
24 52 -1
24 53 1
24 54 -1
24 58 -1
24 60 -1
24 61 1
24 62 1
24 63 -1
24 65 -1
24 66 -1
24 68 1
24 70 1
24 73 -1
24 74 -1
24 76 -1
24 77 1
24 78 1
24 79 1
24 81 -1
24 82 1
24 85 -1
24 87 -1
24 92 -1
24 94 1
24 98 1
24 100 1
25 27 -1
25 35 -1
25 39 1
25 43 1
25 44 1
25 47 1
25 49 1
25 53 -1
25 57 -1
25 59 1
25 60 -1
25 61 1
25 62 -1
25 63 1
25 64 1
25 67 -1
25 70 -1
25 71 1
25 72 -1
25 78 -1
25 81 -1
25 82 1
25 83 -1
25 86 -1
25 89 1
25 91 1
25 93 -1
25 95 -1
25 96 1
26 27 -1
26 28 1
26 29 1
26 30 -1
26 32 1
26 34 1
26 37 1
26 39 1
26 40 -1
26 46 1
26 47 1
26 48 1
26 49 1
26 51 -1
26 52 1
26 57 1
26 58 1
26 60 1
26 64 1
26 67 1
26 70 1
26 71 -1
26 72 1
26 73 1
26 74 1
26 78 -1
26 79 1
26 80 1
26 81 1
26 82 -1
26 85 -1
26 95 -1
26 96 1
26 97 1
26 98 1
26 99 1
27 28 -1
27 29 1
27 31 1
27 32 1
27 34 -1
27 35 1
27 38 -1
27 41 -1
27 42 1
27 43 1
27 44 -1
27 46 1
27 47 -1
27 48 -1
27 53 1
27 54 1
27 55 1
27 58 1
27 62 1
27 64 1
27 72 -1
27 74 -1
27 77 -1
27 78 1
27 80 1
27 82 -1
27 88 1
27 92 -1
27 93 -1
27 96 -1
27 98 -1
27 99 -1
28 30 1
28 33 -1
28 35 1
28 38 -1
28 39 -1
28 41 1
28 44 1
28 49 1
28 50 -1
28 52 1
28 55 1
28 58 -1
28 59 -1
28 60 -1
28 65 -1
28 66 -1
28 67 -1
28 68 1
28 71 -1
28 72 -1
28 76 1
28 80 1
28 82 1
28 83 -1
28 85 -1
28 86 1
28 88 1
28 89 1
28 92 1
28 96 -1
28 97 1
29 32 -1
29 37 -1
29 38 -1
29 39 1
29 42 -1
29 47 -1
29 52 -1
29 53 1
29 55 1
29 56 -1
29 58 1
29 59 -1
29 60 1
29 61 -1
29 62 1
29 65 -1
29 69 -1
29 73 1
29 74 1
29 75 -1
29 76 1
29 77 1
29 78 1
29 79 -1
29 81 -1
29 82 1
29 83 -1
29 85 -1
29 86 -1
29 91 -1
29 94 1
29 95 -1
29 97 1
29 98 -1
30 34 -1
30 36 1
30 40 -1
30 41 1
30 42 -1
30 45 -1
30 46 -1
30 51 -1
30 52 -1
30 54 1
30 56 -1
30 60 -1
30 63 1
30 64 -1
30 66 -1
30 67 -1
30 68 -1
30 69 -1
30 71 -1
30 72 1
30 75 1
30 77 1
30 83 -1
30 86 1
30 90 -1
30 91 -1
30 92 1
30 95 -1
30 97 -1
31 32 1
31 33 1
31 34 -1
31 35 1
31 42 1
31 44 1
31 46 1
31 50 1
31 52 -1
31 54 -1
31 56 -1
31 57 -1
31 58 1
31 60 1
31 61 -1
31 63 1
31 66 -1
31 67 -1
31 68 1
31 71 1
31 73 1
31 74 1
31 77 1
31 80 -1
31 81 -1
31 82 -1
31 85 1
31 86 -1
31 89 -1
31 91 -1
31 92 1
31 96 1
31 97 -1
31 99 -1
31 100 -1
32 33 -1
32 35 -1
32 37 1
32 38 -1
32 40 1
32 42 -1
32 44 -1
32 45 -1
32 46 1
32 47 1
32 48 1
32 51 1
32 53 1
32 55 -1
32 56 -1
32 57 -1
32 58 -1
32 61 -1
32 62 1
32 63 -1
32 64 1
32 65 1
32 68 1
32 71 1
32 72 1
32 74 -1
32 75 -1
32 76 -1
32 77 -1
32 78 -1
32 79 1
32 84 1
32 89 -1
32 90 1
32 91 -1
32 93 1
32 94 -1
32 96 -1
32 97 -1
32 98 1
32 99 -1
32 100 1
33 35 -1
33 37 -1
33 39 1
33 40 1
33 41 1
33 42 1
33 43 -1
33 44 1
33 45 -1
33 46 1
33 48 1
33 49 -1
33 51 -1
33 52 1
33 53 1
33 54 -1
33 55 -1
33 57 -1
33 58 1
33 59 1
33 61 -1
33 62 1
33 63 -1
33 66 -1
33 67 -1
33 68 -1
33 69 1
33 70 -1
33 71 1
33 73 1
33 75 -1
33 78 -1
33 79 -1
33 83 -1
33 85 -1
33 86 -1
33 87 -1
33 89 1
33 90 -1
33 91 -1
33 92 1
33 97 1
33 98 -1
33 99 1
34 36 -1
34 38 -1
34 42 -1
34 43 1
34 44 1
34 45 -1
34 47 -1
34 50 1
34 51 -1
34 54 -1
34 57 -1
34 58 -1
34 60 -1
34 62 1
34 64 1
34 66 -1
34 69 -1
34 75 -1
34 76 1
34 77 1
34 78 -1
34 80 1
34 83 -1
34 86 -1
34 87 -1
34 89 -1
34 91 1
34 93 1
34 97 -1
34 100 1
35 38 1
35 41 1
35 42 1
35 43 1
35 44 1
35 46 1
35 49 1
35 50 -1
35 51 1
35 53 1
35 54 1
35 58 1
35 59 -1
35 63 1
35 64 1
35 67 -1
35 72 -1
35 74 -1
35 75 -1
35 77 -1
35 78 1
35 79 1
35 82 1
35 83 1
35 85 -1
35 87 1
35 88 -1
35 90 1
35 91 -1
35 93 1
35 94 1
35 96 -1
35 98 -1
36 37 -1
36 38 -1
36 39 1
36 41 -1
36 44 -1
36 46 1
36 49 1
36 50 1
36 51 -1
36 52 -1
36 56 1
36 57 -1
36 58 -1
36 66 -1
36 67 1
36 69 1
36 72 -1
36 79 -1
36 80 -1
36 81 1
36 85 1
36 91 -1
36 93 -1
36 95 1
36 98 -1
36 99 -1
37 39 1
37 42 1
37 43 1
37 45 1
37 48 1
37 49 -1
37 50 -1
37 51 -1
37 52 -1
37 54 -1
37 60 1
37 61 1
37 62 1
37 67 -1
37 70 1
37 71 -1
37 74 -1
37 75 -1
37 81 1
37 85 1
37 88 1
37 93 -1
37 94 -1
37 95 1
37 97 -1
38 39 1
38 40 -1
38 42 1
38 43 -1
38 44 1
38 45 1
38 46 1
38 47 1
38 49 -1
38 51 -1
38 52 -1
38 55 -1
38 56 1
38 59 1
38 60 -1
38 62 1
38 63 -1
38 64 -1
38 68 -1
38 71 1
38 73 1
38 74 1
38 76 1
38 79 1
38 83 -1
38 88 1
38 90 -1
38 91 1
38 92 -1
38 96 1
38 97 -1
39 40 -1
39 41 1
39 43 -1
39 45 1
39 49 1
39 52 1
39 56 1
39 57 -1
39 58 1
39 60 1
39 61 -1
39 64 -1
39 65 -1
39 72 1
39 74 1
39 75 -1
39 80 1
39 83 1
39 88 -1
39 93 1
39 97 -1
40 41 1
40 44 1
40 46 1
40 47 1
40 51 1
40 53 1
40 54 1
40 55 -1
40 58 -1
40 59 -1
40 60 1
40 64 1
40 65 1
40 67 1
40 68 1
40 74 -1
40 75 1
40 76 -1
40 78 -1
40 81 -1
40 83 1
40 84 1
40 87 1
40 88 1
40 89 -1
40 90 -1
40 91 1
40 95 -1
40 98 -1
40 100 -1
41 43 1
41 44 -1
41 51 1
41 52 1
41 53 -1
41 55 1
41 56 -1
41 58 1
41 60 1
41 63 1
41 65 1
41 66 1
41 67 1
41 69 -1
41 70 -1
41 71 -1
41 73 -1
41 77 1
41 84 -1
41 85 -1
41 86 1
41 91 -1
42 45 1
42 46 -1
42 50 -1
42 51 1
42 52 1
42 53 1
42 56 -1
42 57 -1
42 58 -1
42 59 1
42 60 -1
42 62 1
42 63 -1
42 66 -1
42 68 -1
42 69 -1
42 70 1
42 72 1
42 80 -1
42 81 1
42 82 1
42 84 -1
42 85 -1
42 86 1
42 87 -1
42 90 -1
42 92 -1
42 93 1
42 94 -1
42 95 -1
42 96 1
42 97 1
42 98 -1
42 99 -1
42 100 -1
43 44 1
43 50 1
43 51 -1
43 52 1
43 53 1
43 56 -1
43 58 1
43 59 -1
43 61 1
43 62 -1
43 64 1
43 65 1
43 66 1
43 68 1
43 70 1
43 74 1
43 75 -1
43 77 1
43 78 -1
43 80 -1
43 81 -1
43 84 1
43 86 1
43 90 1
43 95 -1
43 96 1
43 98 1
43 99 1
43 100 -1
44 45 -1
44 46 1
44 48 -1
44 50 1
44 53 1
44 54 -1
44 55 -1
44 56 1
44 57 1
44 58 1
44 59 1
44 60 1
44 62 1
44 67 1
44 69 -1
44 70 1
44 71 -1
44 75 -1
44 81 1
44 82 -1
44 83 -1
44 86 -1
44 90 -1
44 92 1
44 93 -1
44 97 -1
44 98 1
45 48 1
45 55 -1
45 58 -1
45 62 -1
45 63 1
45 64 -1
45 66 1
45 68 -1
45 69 1
45 70 1
45 71 -1
45 72 -1
45 73 -1
45 75 -1
45 76 -1
45 77 -1
45 78 -1
45 79 1
45 83 -1
45 85 1
45 87 1
45 88 -1
45 92 1
45 93 1
45 95 -1
45 98 1
45 100 1
46 48 -1
46 49 -1
46 53 -1
46 54 1
46 55 -1
46 57 1
46 58 -1
46 59 1
46 60 1
46 61 1
46 62 -1
46 65 -1
46 66 1
46 67 -1
46 73 -1
46 74 1
46 80 -1
46 81 -1
46 83 1
46 86 -1
46 87 1
46 89 1
46 91 1
46 92 -1
46 93 -1
46 95 1
46 96 -1
46 97 1
47 49 1
47 51 1
47 53 -1
47 54 1
47 55 -1
47 57 1
47 59 -1
47 60 -1
47 61 1
47 63 1
47 64 1
47 65 1
47 66 1
47 67 -1
47 69 -1
47 70 -1
47 74 1
47 78 1
47 81 -1
47 83 1
47 87 1
47 88 1
47 90 -1
47 96 1
47 97 1
47 100 -1
48 50 -1
48 56 1
48 58 -1
48 59 1
48 64 1
48 68 -1
48 69 -1
48 72 -1
48 73 1
48 74 1
48 75 -1
48 76 -1
48 82 1
48 83 1
48 84 1
48 88 1
48 91 1
48 92 1
48 93 1
48 95 1
48 96 -1
48 98 -1
48 100 -1
49 51 -1
49 52 1
49 55 1
49 59 1
49 60 -1
49 63 -1
49 64 1
49 67 1
49 68 -1
49 72 -1
49 74 1
49 77 1
49 78 -1
49 79 -1
49 80 -1
49 81 1
49 82 1
49 84 -1
49 88 1
49 93 -1
49 96 1
49 99 -1
49 100 -1
50 55 -1
50 56 1
50 58 -1
50 60 -1
50 61 -1
50 62 1
50 64 -1
50 65 1
50 67 -1
50 71 1
50 72 1
50 74 -1
50 75 1
50 76 -1
50 77 1
50 78 1
50 80 1
50 81 1
50 82 -1
50 83 -1
50 86 -1
50 93 1
50 94 -1
50 96 -1
50 97 1
50 100 1
51 52 -1
51 53 -1
51 54 -1
51 56 -1
51 57 -1
51 59 1
51 61 -1
51 62 1
51 64 -1
51 65 1
51 69 -1
51 70 -1
51 74 -1
51 80 -1
51 81 -1
51 83 1
51 85 -1
51 87 1
51 88 1
51 92 1
51 94 1
51 95 -1
51 100 1
52 53 -1
52 55 1
52 56 1
52 59 -1
52 61 -1
52 62 -1
52 63 1
52 64 1
52 69 -1
52 70 -1
52 77 -1
52 79 -1
52 80 1
52 82 1
52 83 1
52 84 -1
52 85 -1
52 87 1
52 90 -1
52 93 -1
52 95 -1
52 96 -1
52 97 1
52 99 -1
53 54 -1
53 55 -1
53 57 -1
53 60 1
53 61 1
53 62 1
53 63 -1
53 64 -1
53 65 1
53 70 1
53 71 -1
53 75 1
53 76 1
53 78 1
53 80 1
53 84 -1
53 87 1
53 88 -1
53 89 -1
53 90 1
53 92 -1
53 93 -1
53 96 1
53 98 -1
53 99 -1
54 55 1
54 56 1
54 63 -1
54 64 1
54 68 1
54 69 -1
54 71 1
54 76 -1
54 77 1
54 78 1
54 79 1
54 81 1
54 83 1
54 84 1
54 93 1
54 95 1
54 97 1
55 56 -1
55 62 1
55 63 -1
55 64 1
55 66 1
55 68 -1
55 72 1
55 74 -1
55 75 1
55 77 -1
55 79 1
55 80 1
55 87 1
55 88 -1
55 89 -1
55 90 -1
55 94 -1
55 98 1
56 57 1
56 58 1
56 60 1
56 61 1
56 62 -1
56 63 -1
56 65 -1
56 66 1
56 67 -1
56 68 -1
56 71 -1
56 72 -1
56 73 -1
56 75 1
56 79 1
56 80 1
56 81 -1
56 82 1
56 83 1
56 84 1
56 87 -1
56 88 1
56 93 -1
56 94 1
56 95 1
56 99 -1
57 58 -1
57 59 -1
57 61 1
57 62 1
57 63 1
57 64 -1
57 65 -1
57 66 1
57 71 -1
57 73 1
57 74 -1
57 76 -1
57 78 -1
57 80 1
57 85 -1
57 86 1
57 87 -1
57 88 1
57 94 -1
57 96 1
57 99 -1
57 100 -1
58 62 1
58 65 -1
58 70 -1
58 71 1
58 73 1
58 74 -1
58 75 1
58 76 1
58 82 1
58 83 1
58 84 1
58 86 1
58 87 -1
58 89 1
58 92 1
58 93 -1
58 95 -1
58 96 -1
58 97 -1
59 60 -1
59 62 1
59 63 -1
59 66 -1
59 68 1
59 70 1
59 72 -1
59 75 1
59 76 -1
59 77 1
59 85 1
59 87 -1
59 88 -1
59 89 1
59 90 -1
59 91 1
59 93 -1
59 95 1
59 98 1
59 100 -1
60 61 1
60 63 1
60 64 1
60 65 1
60 67 1
60 68 1
60 69 -1
60 70 -1
60 73 1
60 74 -1
60 76 -1
60 77 1
60 80 1
60 81 -1
60 82 1
60 83 1
60 84 1
60 86 1
60 89 -1
60 90 1
60 91 1
60 92 -1
60 97 1
60 98 -1
61 62 -1
61 64 1
61 65 1
61 66 -1
61 68 1
61 71 1
61 73 1
61 76 1
61 77 -1
61 78 -1
61 79 1
61 80 -1
61 81 1
61 82 -1
61 84 -1
61 85 -1
61 86 1
61 89 -1
61 90 -1
61 93 -1
61 98 1
61 100 1
62 68 1
62 70 -1
62 72 -1
62 73 -1
62 74 1
62 75 -1
62 76 1
62 77 -1
62 80 1
62 81 -1
62 82 1
62 84 -1
62 86 -1
62 87 -1
62 88 -1
62 91 1
62 93 -1
62 95 -1
62 96 1
62 97 1
62 98 -1
62 99 1
63 65 1
63 67 1
63 72 -1
63 75 1
63 77 1
63 78 1
63 79 -1
63 80 1
63 81 -1
63 82 1
63 89 1
63 91 1
63 92 1
63 93 1
63 94 1
63 97 -1
63 98 -1
63 99 1
64 65 -1
64 69 1
64 71 -1
64 72 1
64 77 -1
64 78 1
64 80 1
64 81 1
64 83 -1
64 84 -1
64 86 1
64 90 1
64 91 1
64 92 1
64 93 1
64 98 -1
64 100 1
65 67 1
65 68 1
65 69 1
65 70 -1
65 73 -1
65 74 -1
65 75 1
65 77 1
65 78 -1
65 80 -1
65 83 -1
65 87 1
65 90 1
65 93 -1
65 95 1
65 98 -1
66 67 1
66 68 1
66 70 -1
66 73 1
66 75 1
66 76 -1
66 77 1
66 79 -1
66 80 1
66 81 1
66 82 -1
66 84 -1
66 85 -1
66 86 -1
66 87 1
66 88 1
66 90 1
66 91 1
66 93 -1
66 95 -1
66 97 -1
66 99 -1
66 100 -1
67 75 -1
67 76 -1
67 77 -1
67 78 1
67 79 1
67 80 -1
67 81 -1
67 82 -1
67 83 1
67 84 -1
67 85 -1
67 87 -1
67 88 -1
67 90 1
67 92 1
67 93 1
67 95 -1
67 96 -1
67 97 1
67 99 1
67 100 -1
68 69 -1
68 70 -1
68 71 1
68 72 1
68 73 -1
68 74 -1
68 78 1
68 79 1
68 80 1
68 83 -1
68 84 1
68 85 -1
68 86 1
68 90 1
68 92 -1
68 94 1
68 95 -1
68 96 1
68 98 1
68 99 1
68 100 1
69 70 -1
69 71 1
69 72 -1
69 74 -1
69 75 -1
69 76 -1
69 80 1
69 81 1
69 82 -1
69 86 1
69 89 1
69 92 -1
69 95 1
69 96 1
69 99 1
69 100 -1
70 73 -1
70 74 -1
70 78 -1
70 82 -1
70 83 1
70 85 1
70 86 -1
70 87 -1
70 88 1
70 93 1
70 94 -1
70 95 1
70 99 1
71 72 -1
71 74 -1
71 75 -1
71 77 -1
71 78 -1
71 83 1
71 84 1
71 85 1
71 86 1
71 87 -1
71 88 1
71 92 -1
71 94 -1
71 95 -1
71 99 -1
72 75 1
72 76 -1
72 77 1
72 79 -1
72 80 -1
72 81 -1
72 84 -1
72 88 -1
72 90 1
72 93 -1
72 94 -1
72 97 -1
72 100 1
73 78 -1
73 79 1
73 81 1
73 82 -1
73 83 -1
73 84 1
73 87 -1
73 91 1
73 92 -1
73 93 -1
73 99 -1
73 100 1
74 77 1
74 79 1
74 80 -1
74 81 -1
74 82 1
74 83 1
74 85 -1
74 86 1
74 87 1
74 90 -1
74 91 -1
74 92 1
74 93 -1
74 94 1
74 95 -1
74 96 -1
74 97 -1
74 98 1
74 99 1
75 77 1
75 79 -1
75 80 -1
75 81 1
75 82 1
75 85 1
75 86 1
75 87 1
75 88 -1
75 91 1
75 94 -1
75 96 -1
76 81 1
76 82 -1
76 86 -1
76 87 -1
76 93 -1
76 94 -1
76 95 1
76 96 -1
76 99 -1
77 79 -1
77 81 -1
77 82 -1
77 83 -1
77 84 1
77 85 1
77 87 1
77 88 -1
77 90 1
77 94 1
77 100 1
78 81 1
78 82 1
78 86 1
78 87 1
78 88 1
78 92 1
78 94 -1
78 98 -1
78 99 1
78 100 -1
79 81 -1
79 83 -1
79 90 -1
79 92 -1
79 94 1
79 95 1
79 96 1
79 100 -1
80 83 -1
80 84 1
80 86 1
80 88 1
80 92 -1
80 94 -1
80 96 -1
80 97 -1
80 98 1
80 100 -1
81 82 -1
81 87 -1
81 88 -1
81 89 -1
81 92 -1
81 93 -1
81 95 1
81 96 1
81 97 -1
82 84 1
82 86 1
82 92 1
82 95 -1
82 96 1
82 99 -1
83 87 -1
83 88 -1
83 89 -1
83 90 -1
83 91 -1
83 92 -1
83 100 -1
84 87 -1
84 89 -1
84 90 -1
84 92 1
84 94 1
84 97 -1
84 98 -1
84 99 1
84 100 1
85 86 1
85 89 -1
85 90 -1
85 92 1
85 93 -1
85 94 1
85 96 -1
85 97 -1
85 98 1
86 87 -1
86 88 -1
86 89 1
86 91 1
86 93 1
86 95 1
86 96 -1
86 97 1
86 99 -1
87 89 -1
87 90 1
87 93 -1
87 95 1
87 96 1
87 98 -1
87 99 1
88 89 -1
88 90 -1
88 91 1
88 92 -1
88 93 -1
88 95 1
88 96 1
88 97 1
89 90 1
89 91 -1
89 93 -1
89 95 1
89 97 1
89 100 1
90 91 -1
90 93 1
90 96 -1
90 98 -1
90 100 1
91 93 1
91 94 1
91 95 1
91 99 1
91 100 -1
92 93 1
92 96 -1
92 99 -1
92 100 -1
93 95 -1
93 97 -1
93 98 1
93 99 1
93 100 1
94 96 1
94 97 -1
94 98 1
94 100 -1
95 96 -1
95 97 1
96 97 -1
96 100 1
97 98 1
98 100 1
